
Log started (V11.0.0) Tue May 20 11:59:25 2008

Tried aggregator 1 time.
Reduced MIP has 240 rows, 8001 columns, and 16040 nonzeros.
Presolve time =    0.06 sec.
Clique table members: 200.
MIP emphasis: balance optimality and feasibility.
MIP search method: dynamic search.
Parallel mode: none, using 1 thread.
Root relaxation solution time =    0.50 sec.

        Nodes                                         Cuts/
   Node  Left     Objective  IInf  Best Integer     Best Node    ItCnt     Gap

*     0+    0                       209301.0000     5011.8753      562   97.61%
*     0+    0                         5024.0000     5011.8753      562    0.24%
      0     0     5012.0000    73     5024.0000      Fract: 6      584    0.24%
      0     0     5015.0000    61     5024.0000     Covers: 1      614    0.18%
      0     0     5015.0000    66     5024.0000    MIRcuts: 1      618    0.18%
      0     2     5015.0000    66     5024.0000     5015.0000      618    0.18%
    100    48     5015.0000    59     5024.0000     5015.0000     3728    0.18%
*   200+   94                         5023.0000     5015.0000     8960    0.16%
*   200+   90                         5022.0000     5015.0000     8960    0.14%
    200    92     5017.0000    69     5022.0000     5015.0000     8960    0.14%
    300   141        cutoff           5022.0000     5015.0000    12507    0.14%
    400   156        cutoff           5022.0000     5015.0000    16386    0.14%
*   478+  113                         5021.0000     5015.0000    21184    0.12%
*   478+   74                         5020.0000     5015.0000    21184    0.10%
    500    78     5015.0000    70     5020.0000     5015.0000    21721    0.10%
    600    66     5015.0000    70     5020.0000     5015.0000    25293    0.10%
    700   127     5016.0000    76     5020.0000     5015.0000    32858    0.10%
    800   190     5018.0000    61     5020.0000     5015.0000    41211    0.10%
    900   253     5015.0000    72     5020.0000     5015.0000    48895    0.10%
   1000   327     5017.0000    67     5020.0000     5015.0000    51900    0.10%
Elapsed time =  52.88 sec. (tree size =  1.76 MB, solutions = 6)
   1100   388     5018.0000    67     5020.0000     5015.0000    56573    0.10%
   1200   345        cutoff           5020.0000     5015.0000    64427    0.10%
   1300   245        cutoff           5020.0000     5015.0000    67895    0.10%
   1400   333     5015.0000    78     5020.0000     5015.0000    70517    0.10%
   1500   422     5018.0000    66     5020.0000     5015.0000    73151    0.10%
   1600   485     5019.0000    68     5020.0000     5015.0000    81137    0.10%
   1700   557     5015.0000    68     5020.0000     5015.0000    86649    0.10%
   1800   644     5015.0000    67     5020.0000     5015.0000    89885    0.10%
   1900   738     5015.0000    54     5020.0000     5015.0000    91648    0.10%
   2000   827     5016.0000    69     5020.0000     5015.0000    94974    0.10%
Elapsed time =  80.41 sec. (tree size =  4.83 MB, solutions = 6)
   2100   904     5015.0000    57     5020.0000     5015.0000   105156    0.10%
   2200   975     5018.0000    76     5020.0000     5015.0000   113580    0.10%
*  2278+  945                         5019.0000     5015.0000   118514    0.08%
   2300   965     5015.0000    78     5019.0000     5015.0000   119980    0.08%
   2400  1064     5016.0000    71     5019.0000     5015.0000   121671    0.08%
   2500  1158     5015.0000    72     5019.0000     5015.0000   124552    0.08%
   2600  1254     5017.0000    73     5019.0000     5015.0000   127735    0.08%
   2700  1338     5015.0000    77     5019.0000     5015.0000   133066    0.08%
   2800  1438     5016.0000    82     5019.0000     5015.0000   135434    0.08%
   2900  1526     5015.0000    73     5019.0000     5015.0000   139182    0.08%
   3000  1615     5016.0000    85     5019.0000     5015.0000   143008    0.08%
Elapsed time = 112.16 sec. (tree size =  9.93 MB, solutions = 7)
   3100  1696     5018.0000    69     5019.0000     5015.0000   147797    0.08%
   3200  1780     5015.0000    79     5019.0000     5015.0000   162194    0.08%
   3300  1878     5017.0000    81     5019.0000     5015.0000   164329    0.08%
*  3378+ 1576                         5018.0000     5015.0000   171865    0.06%
   3400  1600     5015.0000    73     5018.0000     5015.0000   172035    0.06%
   3500  1698     5017.0000    82     5018.0000     5015.0000   174578    0.06%
   3600  1782     5015.0000    80     5018.0000     5015.0000   178072    0.06%
   3700  1863     5016.0000    70     5018.0000     5015.0000   184316    0.06%
   3800  1956     5017.0000    84     5018.0000     5015.0000   190612    0.06%
   3900  2036        cutoff           5018.0000     5015.0000   196555    0.06%
   4000  2115     5016.0000    68     5018.0000     5015.0000   200145    0.06%
Elapsed time = 147.11 sec. (tree size = 13.59 MB, solutions = 8)
   4100  2203     5015.0000    84     5018.0000     5015.0000   204046    0.06%
   4200  2289     5015.0000    81     5018.0000     5015.0000   209255    0.06%
   4300  2385     5016.0000    69     5018.0000     5015.0000   211594    0.06%
   4400  2472     5015.0000    87     5018.0000     5015.0000   216262    0.06%
   4500  2571     5016.0000    86     5018.0000     5015.0000   219640    0.06%
   4600  2662     5015.0000    87     5018.0000     5015.0000   225219    0.06%
   4700  2760     5016.0332   111     5018.0000     5015.0000   229240    0.06%
   4800  2827     5015.0000    92     5018.0000     5015.0000   238043    0.06%
   4900  2918     5015.0000    80     5018.0000     5015.0000   241455    0.06%
   5000  3004     5015.0000    78     5018.0000     5015.0000   246854    0.06%
Elapsed time = 187.83 sec. (tree size = 20.64 MB, solutions = 8)
   5100  3094     5015.0000   110     5018.0000     5015.0000   252283    0.06%
   5200  3146        cutoff           5018.0000     5015.0000   266998    0.06%
   5300  3233     5016.0000    94     5018.0000     5015.0000   278418    0.06%
   5400  3312     5015.0000    85     5018.0000     5015.0000   289332    0.06%
   5500  3399     5016.0000   116     5018.0000     5015.0000   300218    0.06%
   5600  3486     5015.2499   164     5018.0000     5015.0000   318082    0.06%
   5700  3567     5016.0000    80     5018.0000     5015.0000   331564    0.06%
   5800  3648     5016.0646   135     5018.0000     5015.0000   344124    0.06%
   5900  3731     5015.0000   101     5018.0000     5015.0000   358361    0.06%
   6000  3777     5016.7688   141     5018.0000     5015.0000   397873    0.06%
Elapsed time = 291.16 sec. (tree size = 28.64 MB, solutions = 8)
   6100  3825        cutoff           5018.0000     5015.0000   463247    0.06%
   6200  3765        cutoff           5018.0000     5015.0000   546161    0.06%
   6300  3693        cutoff           5018.0000     5015.0000   650481    0.06%
   6400  3607        cutoff           5018.0000     5015.0000   721690    0.06%
   6500  3530        cutoff           5018.0000     5015.0000   822905    0.06%
   6600  3466        cutoff           5018.0000     5015.0000   925129    0.06%
   6700  3389     5015.0000   150     5018.0000     5015.0000  1023515    0.06%
   6800  3338        cutoff           5018.0000     5015.0000  1102690    0.06%
   6900  3266        cutoff           5018.0000     5015.0000  1224402    0.06%
   7000  3209        cutoff           5018.0000     5015.0000  1353860    0.06%
Elapsed time = 1107.20 sec. (tree size = 26.26 MB, solutions = 8)
   7100  3128     5017.0000   123     5018.0000     5015.0000  1445730    0.06%
   7200  3135        cutoff           5018.0000     5015.0000  1605053    0.06%
   7300  3037     5016.0000   209     5018.0000     5015.0000  1715327    0.06%
   7400  3037        cutoff           5018.0000     5015.0000  1833148    0.06%
   7500  2959        cutoff           5018.0000     5015.0000  1938124    0.06%
   7600  2859        cutoff           5018.0000     5015.0000  2016590    0.06%
   7700  2759        cutoff           5018.0000     5015.0000  2105944    0.06%
   7800  2701        cutoff           5018.0000     5015.0000  2206662    0.06%
   7900  2611        cutoff           5018.0000     5015.0000  2317694    0.06%
   8000  2511        cutoff           5018.0000     5015.0000  2422167    0.06%
Elapsed time = 2126.33 sec. (tree size = 22.52 MB, solutions = 8)
   8100  2420        cutoff           5018.0000     5015.0000  2538762    0.06%
   8200  2349        cutoff           5018.0000     5015.0000  2657747    0.06%
   8300  2325     5015.0000   140     5018.0000     5015.0000  2754745    0.06%
   8400  2331        cutoff           5018.0000     5015.0000  2841761    0.06%
   8500  2287     5015.0000   135     5018.0000     5015.0000  2960045    0.06%
   8600  2268     5015.0000   159     5018.0000     5015.0000  3054225    0.06%
   8700  2289     5015.0000   158     5018.0000     5015.0000  3143182    0.06%
   8800  2285        cutoff           5018.0000     5015.0000  3236132    0.06%
   8900  2248        cutoff           5018.0000     5015.0000  3339832    0.06%
   9000  2234        cutoff           5018.0000     5015.0000  3464334    0.06%
Elapsed time = 3290.91 sec. (tree size = 22.01 MB, solutions = 8)
   9100  2256        cutoff           5018.0000     5015.0000  3543733    0.06%
   9200  2271        cutoff           5018.0000     5015.0000  3614775    0.06%
   9300  2299        cutoff           5018.0000     5015.0000  3682304    0.06%
   9400  2297        cutoff           5018.0000     5015.0000  3757014    0.06%
   9500  2291     5015.0000   149     5018.0000     5015.0000  3864557    0.06%
   9600  2313        cutoff           5018.0000     5015.0000  3939128    0.06%
   9700  2313     5015.0000   135     5018.0000     5015.0000  4015379    0.06%
   9800  2317        cutoff           5018.0000     5015.0000  4127207    0.06%
   9900  2315        cutoff           5018.0000     5015.0000  4230172    0.06%
  10000  2313     5015.0000   140     5018.0000     5015.0000  4307886    0.06%
Elapsed time = 4339.80 sec. (tree size = 24.34 MB, solutions = 8)
  10100  2322        cutoff           5018.0000     5015.0000  4388607    0.06%
  10200  2332     5015.0000   145     5018.0000     5015.0000  4466891    0.06%
  10300  2318        cutoff           5018.0000     5015.0000  4540626    0.06%
  10400  2324        cutoff           5018.0000     5015.0000  4636501    0.06%
  10500  2326     5015.0000   117     5018.0000     5015.0000  4711290    0.06%
  10600  2332        cutoff           5018.0000     5015.0000  4802620    0.06%
  10700  2327        cutoff           5018.0000     5015.0000  4880945    0.06%
  10800  2313     5015.0000   147     5018.0000     5015.0000  4969273    0.06%
  10900  2311        cutoff           5018.0000     5015.0000  5058964    0.06%
  11000  2302        cutoff           5018.0000     5015.0000  5143508    0.06%
Elapsed time = 5380.34 sec. (tree size = 24.36 MB, solutions = 8)
  11100  2286        cutoff           5018.0000     5015.0000  5224485    0.06%
  11200  2272        cutoff           5018.0000     5015.0000  5306383    0.06%
  11300  2285        cutoff           5018.0000     5015.0000  5391819    0.06%
  11400  2278        cutoff           5018.0000     5015.0000  5489801    0.06%
  11500  2270     5015.0000   165     5018.0000     5015.0000  5568413    0.06%
  11600  2266     5015.0000   118     5018.0000     5015.0000  5646411    0.06%
  11700  2246        cutoff           5018.0000     5015.0000  5747532    0.06%
  11800  2247     5016.0000   119     5018.0000     5015.0000  5832847    0.06%
  11900  2243     5017.0000   125     5018.0000     5015.0000  5914181    0.06%
  12000  2226        cutoff           5018.0000     5015.0000  6009050    0.06%
Elapsed time = 6434.80 sec. (tree size = 23.11 MB, solutions = 8)
  12100  2207        cutoff           5018.0000     5015.0000  6103042    0.06%
  12200  2199     5015.0000   150     5018.0000     5015.0000  6196120    0.06%
  12300  2183     5015.0000   115     5018.0000     5015.0000  6271508    0.06%
  12400  2177        cutoff           5018.0000     5015.0000  6353060    0.06%
  12500  2170        cutoff           5018.0000     5015.0000  6436860    0.06%
  12600  2152        cutoff           5018.0000     5015.0000  6525825    0.06%
  12700  2132        cutoff           5018.0000     5015.0000  6611818    0.06%

Cover cuts applied:  1192
Gomory fractional cuts applied:  8

Solution pool: 8 solutions saved.

MIP - Time limit exceeded, integer feasible:  Objective = 5.0180000000e+003
Current MIP best bound = 5.0150000000e+003 (gap = 3, 0.06%)
Solution time = 7200.06 sec.  Iterations = 6639860  Nodes = 12735 (2126)


Incumbent solution
Variable Name           Solution Value
Cmax                       5018.000000
X_1_38                        1.000000
X_2_22                        1.000000
X_3_28                        1.000000
X_4_24                        1.000000
X_5_8                         1.000000
X_6_23                        1.000000
X_7_12                        1.000000
X_8_11                        1.000000
X_9_12                        1.000000
X_10_6                        1.000000
X_11_29                       1.000000
X_12_24                       1.000000
X_13_8                        1.000000
X_14_32                       1.000000
X_15_28                       1.000000
X_16_6                        1.000000
X_17_16                       1.000000
X_18_14                       1.000000
X_19_30                       1.000000
X_20_40                       1.000000
X_21_20                       1.000000
X_22_22                       1.000000
X_23_37                       1.000000
X_24_31                       1.000000
X_25_15                       1.000000
X_26_28                       1.000000
X_27_17                       1.000000
X_28_32                       1.000000
X_29_36                       1.000000
X_30_2                        1.000000
X_31_3                        1.000000
X_32_19                       1.000000
X_33_7                        1.000000
X_34_11                       1.000000
X_35_10                       1.000000
X_36_4                        1.000000
X_37_30                       1.000000
X_38_33                       1.000000
X_39_21                       1.000000
X_40_34                       1.000000
X_41_4                        1.000000
X_42_15                       1.000000
X_43_21                       1.000000
X_44_36                       1.000000
X_45_15                       1.000000
X_46_2                        1.000000
X_47_16                       1.000000
X_48_2                        1.000000
X_49_26                       1.000000
X_50_15                       1.000000
X_51_4                        1.000000
X_52_37                       1.000000
X_53_39                       1.000000
X_54_18                       1.000000
X_55_7                        1.000000
X_56_5                        1.000000
X_57_17                       1.000000
X_58_33                       1.000000
X_59_10                       1.000000
X_60_17                       1.000000
X_61_30                       1.000000
X_62_1                        1.000000
X_63_35                       1.000000
X_64_20                       1.000000
X_65_36                       1.000000
X_66_40                       1.000000
X_67_7                        1.000000
X_68_6                        1.000000
X_69_3                        1.000000
X_70_28                       1.000000
X_71_24                       1.000000
X_72_16                       1.000000
X_73_39                       1.000000
X_74_21                       1.000000
X_75_22                       1.000000
X_76_39                       1.000000
X_77_16                       1.000000
X_78_39                       1.000000
X_79_38                       1.000000
X_80_7                        1.000000
X_81_11                       1.000000
X_82_17                       1.000000
X_83_34                       1.000000
X_84_14                       1.000000
X_85_5                        1.000000
X_86_23                       1.000000
X_87_1                        1.000000
X_88_5                        1.000000
X_89_9                        1.000000
X_90_13                       1.000000
X_91_35                       1.000000
X_92_23                       1.000000
X_93_25                       1.000000
X_94_14                       1.000000
X_95_1                        1.000000
X_96_17                       1.000000
X_97_2                        1.000000
X_98_19                       1.000000
X_99_9                        1.000000
X_100_29                      1.000000
X_101_14                      1.000000
X_102_6                       1.000000
X_103_26                      1.000000
X_104_9                       1.000000
X_105_12                      1.000000
X_106_34                      1.000000
X_107_30                      1.000000
X_108_20                      1.000000
X_109_31                      1.000000
X_110_25                      1.000000
X_111_33                      1.000000
X_112_24                      1.000000
X_113_16                      1.000000
X_114_10                      1.000000
X_115_13                      1.000000
X_116_26                      1.000000
X_117_23                      1.000000
X_118_25                      1.000000
X_119_13                      1.000000
X_120_38                      1.000000
X_121_21                      1.000000
X_122_22                      1.000000
X_123_37                      1.000000
X_124_19                      1.000000
X_125_8                       1.000000
X_126_35                      1.000000
X_127_15                      1.000000
X_128_5                       1.000000
X_129_21                      1.000000
X_130_18                      1.000000
X_131_13                      1.000000
X_132_9                       1.000000
X_133_34                      1.000000
X_134_26                      1.000000
X_135_33                      1.000000
X_136_39                      1.000000
X_137_11                      1.000000
X_138_20                      1.000000
X_139_32                      1.000000
X_140_1                       1.000000
X_141_27                      1.000000
X_142_8                       1.000000
X_143_6                       1.000000
X_144_37                      1.000000
X_145_9                       1.000000
X_146_5                       1.000000
X_147_27                      1.000000
X_148_19                      1.000000
X_149_36                      1.000000
X_150_20                      1.000000
X_151_3                       1.000000
X_152_25                      1.000000
X_153_18                      1.000000
X_154_31                      1.000000
X_155_40                      1.000000
X_156_35                      1.000000
X_157_25                      1.000000
X_158_35                      1.000000
X_159_18                      1.000000
X_160_31                      1.000000
X_161_38                      1.000000
X_162_11                      1.000000
X_163_12                      1.000000
X_164_4                       1.000000
X_165_1                       1.000000
X_166_12                      1.000000
X_167_36                      1.000000
X_168_10                      1.000000
X_169_27                      1.000000
X_170_3                       1.000000
X_171_10                      1.000000
X_172_28                      1.000000
X_173_14                      1.000000
X_174_29                      1.000000
X_175_29                      1.000000
X_176_19                      1.000000
X_177_22                      1.000000
X_178_18                      1.000000
X_179_30                      1.000000
X_180_37                      1.000000
X_181_40                      1.000000
X_182_13                      1.000000
X_183_24                      1.000000
X_184_31                      1.000000
X_185_33                      1.000000
X_186_23                      1.000000
X_187_3                       1.000000
X_188_4                       1.000000
X_189_32                      1.000000
X_190_26                      1.000000
X_191_2                       1.000000
X_192_29                      1.000000
X_193_38                      1.000000
X_194_27                      1.000000
X_195_32                      1.000000
X_196_8                       1.000000
X_197_27                      1.000000
X_198_34                      1.000000
X_199_7                       1.000000
X_200_40                      1.000000
All other variables in the range 1-8001 are 0.
